p cnf 7230 17
-1896 -2626 3249 0
2626 -3249 0
-1902 -2356 -3254 0
-1900 -2614 -3252 0
-1898 -2216 -3250 0
1902 -3255 0
1900 -3253 0
1898 -3251 0
3254 3255 0
3252 3253 0
3250 3251 0
2356 -3255 0
2614 -3253 0
2216 -3251 0
1904 -3257 0
3248 3249 0
-3248 -3249 0
